c Random generated cnf formula, satisfiable: false
p cnf 10 50
9 -7 -1 0
-6 2 -8 0
10 2 -3 0
8 6 1 0
9 5 3 0
-5 3 8 0
-10 -3 -5 0
1 -10 9 0
6 5 9 0
-8 2 1 0
-1 -2 7 0
-7 -10 3 0
6 4 5 0
1 10 5 0
-8 5 -4 0
6 -2 8 0
-7 8 6 0
-5 4 9 0
3 7 10 0
-7 -4 10 0
10 -6 5 0
3 -1 10 0
-8 -5 -6 0
6 1 3 0
-3 5 7 0
-6 3 1 0
-9 5 8 0
-1 -3 4 0
-7 10 4 0
1 -8 7 0
-6 9 8 0
10 -8 -5 0
-3 8 -6 0
2 -8 -1 0
5 9 -3 0
2 7 -8 0
-4 3 8 0
-4 10 -6 0
-10 -3 6 0
7 -5 2 0
-7 -4 8 0
-9 3 -6 0
-3 5 -9 0
5 1 2 0
-9 -3 8 0
10 -7 4 0
6 -3 7 0
-5 3 -4 0
5 8 2 0
-1 -8 6 0
